%%%mzn-stat: initTime=0.005581016
%%%mzn-stat: objective=437
%%%mzn-stat: nodes=2113
%%%mzn-stat: restarts=0
%%%mzn-stat: peakDepth=154
%%%mzn-stat: solveTime=0.087764362
%%%mzn-stat: variables=554
%%%mzn-stat: propagators=392
%%%mzn-stat: failures=584
%%%mzn-stat: propagations=140861
%%%mzn-stat: nogoods=584
%%%mzn-stat: AverageConflictSize=13.686643835616438
%%%mzn-stat: NumUnitNogoodsLearned=436
%%%mzn-stat: AverageLearnedNogoodLength=6.958904109589041
%%%mzn-stat: AverageBacktrackAmount=0
%%%mzn-stat: AverageLbd=2.4760273972602738
%%%mzn-stat-end
maxleg = 437;
succ = array1d(1..20,[16, 18, 13, 2, 4, 12, 10, 19, 1, 14, 9, 7, 20, 11, 8, 5, 3, 17, 6, 15]);
% time elapsed: 1.60 s
----------
==========
% time elapsed: 1.60 s
%%%mzn-stat: initTime=0.005581016
%%%mzn-stat: objective=437
%%%mzn-stat: nodes=2113
%%%mzn-stat: restarts=0
%%%mzn-stat: peakDepth=154
%%%mzn-stat: solveTime=0.087767387
%%%mzn-stat: variables=554
%%%mzn-stat: propagators=392
%%%mzn-stat: failures=584
%%%mzn-stat: propagations=140861
%%%mzn-stat: nogoods=584
%%%mzn-stat: AverageConflictSize=13.686643835616438
%%%mzn-stat: NumUnitNogoodsLearned=436
%%%mzn-stat: AverageLearnedNogoodLength=6.958904109589041
%%%mzn-stat: AverageBacktrackAmount=0
%%%mzn-stat: AverageLbd=2.4760273972602738
%%%mzn-stat-end
